200
200
160
159
159
158
157
157
156
155
155
155
155
154
154
153
150
150
150
149
149
148
148
147
147
146
145
144
144
144
143
140
139
139
138
138
136
136
136
134
133
133
133
133
132
131
131
131
129
129
128
128
127
127
126
126
125
124
124
121
121
120
120
120
119
118
118
118
117
117
117
116
115
112
112
111
111
111
109
109
107
106
106
106
101
100
100
100
95
95
94
93
93
92
92
91
90
89
89
89
88
88
87
86
84
84
82
81
81
80
80
78
77
77
76
76
75
74
74
74
73
73
73
72
71
69
68
68
67
67
66
66
65
65
65
63
62
61
60
59
59
58
58
57
56
56
55
55
53
53
53
52
51
51
49
49
48
47
47
46
46
45
44
44
43
43
42
42
40
40
40
39
38
38
35
35
35
35
35
35
34
34
32
32
32
31
30
30
30
28
27
26
26
26
25
25
25
23
23
20
20
20
